c Random 4-CNF over 20 variables and 100 clauses
c Generated with `cnfgen`
c (C) 2012-2016 Massimo Lauria <lauria.massimo@gmail.com>
c https://massimolauria.github.io/cnfgen
c
c COMMAND LINE: cnfgen --output tmp-4-20-100.dimacs --output-format dimacs randkcnf 4 20 100
c
c sdimacs generated by gen-sdimacs
c
p cnf 20 100
r 0.5 1 2 3 4 5 6 7 8 9 10 0
e  11 12 13 14 15 16 17 18 19 20 0
5 6 -8 15 0
3 -8 -13 20 0
3 4 -10 -15 0
-9 14 17 20 0
-7 -17 -19 -20 0
2 13 15 -19 0
8 10 -13 15 0
-10 11 17 20 0
-1 7 9 20 0
-4 -6 -8 18 0
-6 -8 -9 -17 0
-3 6 13 19 0
-6 9 11 -12 0
7 -9 17 -20 0
1 -3 11 -14 0
1 -2 4 12 0
-1 -13 15 19 0
-2 -3 11 12 0
7 -8 9 11 0
2 -11 16 -19 0
6 8 -18 19 0
-7 9 11 -18 0
3 11 13 14 0
-2 3 16 -18 0
-12 16 17 -20 0
-1 -11 14 15 0
2 -13 -19 -20 0
-8 -9 11 -13 0
1 10 11 -13 0
4 6 7 -20 0
-1 -5 6 -10 0
1 6 -9 -16 0
-1 2 14 -20 0
-5 11 16 19 0
-3 6 8 17 0
-1 10 -16 -17 0
-7 8 12 19 0
-1 2 -5 -18 0
4 7 14 -20 0
-2 10 18 20 0
-9 -10 -17 18 0
-1 2 13 -18 0
2 15 17 18 0
13 -15 18 -20 0
-3 -5 -11 13 0
-3 10 13 15 0
-5 6 -10 12 0
-4 -7 -9 15 0
-2 7 -8 -18 0
-10 11 13 -17 0
-4 -5 -10 20 0
-1 4 -11 17 0
5 10 -16 -19 0
6 8 -12 17 0
4 5 -16 17 0
3 -6 -10 11 0
6 12 -14 20 0
-7 -8 -18 20 0
3 -6 -18 -19 0
-4 5 -13 -20 0
5 10 -16 17 0
-3 -11 -16 18 0
3 -13 -18 -19 0
2 -11 18 19 0
-3 -4 -12 17 0
-1 -13 -14 15 0
-2 -12 -18 20 0
10 -11 -12 -16 0
-4 -7 9 18 0
3 -6 13 14 0
1 9 14 16 0
3 6 -7 10 0
6 -9 -13 -18 0
-1 8 10 18 0
5 17 18 -19 0
-2 -7 -14 19 0
-6 8 11 14 0
6 -7 -9 18 0
-6 14 17 -20 0
-9 11 -12 19 0
4 -9 -12 15 0
7 8 -10 -15 0
-10 11 -13 -19 0
8 9 -10 17 0
5 13 17 19 0
-9 -10 -15 -18 0
1 -9 -18 -20 0
-4 15 16 -20 0
-2 14 -18 -20 0
1 -4 -8 -11 0
9 12 -13 -16 0
4 -10 -12 -14 0
-1 3 -8 -9 0
-1 6 14 17 0
4 9 16 -20 0
5 -6 15 19 0
-7 11 -18 -20 0
-8 10 13 -14 0
5 -6 9 -11 0
5 -10 12 -13 0
